653,229
633,371
293,688
406,681
740,397
820,833
293,688
231,406
677,435
1214,490
1093,107
427,152
600,566
937,323
488,140
627,512
589,121
470,115
441,284
558,237
1028,229
839,188
664,430
707,419
880,342
227,637
444,443
894,298
439,230
342,67
1125,336
732,81
584,336
510,351
576,551
899,564
888,438
